90 4005
1 2 223
1 3 218
1 4 71
1 5 162
1 6 118
1 7 40
1 8 251
1 9 253
1 10 230
1 11 230
1 12 190
1 13 144
1 14 105
1 15 263
1 16 255
1 17 6
1 18 141
1 19 25
1 20 202
1 21 203
1 22 266
1 23 262
1 24 259
1 25 248
1 26 43
1 27 144
1 28 79
1 29 187
1 30 75
1 31 118
1 32 6
1 33 191
1 34 42
1 35 3
1 36 70
1 37 180
1 38 22
1 39 142
1 40 4
1 41 27
1 42 264
1 43 262
1 44 26
1 45 78
1 46 138
1 47 234
1 48 213
1 49 114
1 50 82
1 51 123
1 52 127
1 53 158
1 54 136
1 55 246
1 56 176
1 57 244
1 58 253
1 59 223
1 60 266
1 61 265
1 62 188
1 63 151
1 64 52
1 65 224
1 66 54
1 67 201
1 68 155
1 69 234
1 70 233
1 71 215
1 72 246
1 73 265
1 74 159
1 75 184
1 76 155
1 77 178
1 78 126
1 79 236
1 80 202
1 81 242
1 82 69
1 83 57
1 84 151
1 85 223
1 86 101
1 87 245
1 88 252
1 89 153
1 90 41
2 3 137
2 4 245
2 5 194
2 6 143
2 7 249
2 8 193
2 9 88
2 10 168
2 11 139
2 12 186
2 13 86
2 14 37
2 15 68
2 16 146
2 17 265
2 18 142
2 19 101
2 20 151
2 21 188
2 22 97
2 23 86
2 24 173
2 25 212
2 26 60
2 27 152
2 28 203
2 29 55
2 30 65
2 31 233
2 32 210
2 33 51
2 34 100
2 35 116
2 36 12
2 37 96
2 38 223
2 39 239
2 40 111
2 41 100
2 42 67
2 43 170
2 44 258
2 45 96
2 46 207
2 47 11
2 48 125
2 49 27
2 50 199
2 51 37
2 52 161
2 53 134
2 54 164
2 55 220
2 56 134
2 57 64
2 58 135
2 59 130
2 60 154
2 61 50
2 62 203
2 63 168
2 64 251
2 65 75
2 66 70
2 67 225
2 68 208
2 69 44
2 70 215
2 71 244
2 72 177
2 73 50
2 74 1
2 75 133
2 76 196
2 77 138
2 78 192
2 79 4
2 80 111
2 81 232
2 82 139
2 83 4
2 84 125
2 85 262
2 86 231
2 87 73
2 88 139
2 89 180
2 90 99
3 4 192
3 5 64
3 6 164
3 7 48
3 8 39
3 9 37
3 10 220
3 11 124
3 12 5
3 13 15
3 14 183
3 15 69
3 16 48
3 17 85
3 18 120
3 19 54
3 20 241
3 21 161
3 22 205
3 23 174
3 24 125
3 25 103
3 26 250
3 27 171
3 28 158
3 29 161
3 30 240
3 31 36
3 32 155
3 33 162
3 34 225
3 35 160
3 36 5
3 37 111
3 38 126
3 39 126
3 40 212
3 41 227
3 42 149
3 43 108
3 44 196
3 45 134
3 46 113
3 47 255
3 48 112
3 49 122
3 50 264
3 51 200
3 52 190
3 53 255
3 54 157
3 55 83
3 56 144
3 57 54
3 58 109
3 59 66
3 60 158
3 61 100
3 62 54
3 63 65
3 64 237
3 65 44
3 66 223
3 67 254
3 68 112
3 69 58
3 70 163
3 71 40
3 72 37
3 73 126
3 74 98
3 75 256
3 76 228
3 77 28
3 78 223
3 79 25
3 80 167
3 81 192
3 82 39
3 83 11
3 84 243
3 85 229
3 86 104
3 87 245
3 88 198
3 89 103
3 90 43
4 5 227
4 6 210
4 7 144
4 8 38
4 9 61
4 10 249
4 11 230
4 12 64
4 13 87
4 14 256
4 15 153
4 16 88
4 17 200
4 18 103
4 19 220
4 20 107
4 21 101
4 22 248
4 23 185
4 24 118
4 25 245
4 26 113
4 27 170
4 28 264
4 29 50
4 30 131
4 31 27
4 32 183
4 33 64
4 34 203
4 35 149
4 36 79
4 37 238
4 38 158
4 39 208
4 40 135
4 41 195
4 42 168
4 43 137
4 44 236
4 45 66
4 46 160
4 47 179
4 48 19
4 49 220
4 50 200
4 51 5
4 52 190
4 53 162
4 54 179
4 55 154
4 56 102
4 57 246
4 58 117
4 59 55
4 60 109
4 61 22
4 62 132
4 63 242
4 64 12
4 65 217
4 66 268
4 67 72
4 68 169
4 69 26
4 70 167
4 71 47
4 72 50
4 73 212
4 74 153
4 75 61
4 76 257
4 77 97
4 78 6
4 79 144
4 80 174
4 81 124
4 82 134
4 83 258
4 84 236
4 85 114
4 86 265
4 87 84
4 88 65
4 89 263
4 90 263
5 6 68
5 7 185
5 8 99
5 9 142
5 10 264
5 11 38
5 12 123
5 13 81
5 14 104
5 15 67
5 16 108
5 17 165
5 18 2
5 19 152
5 20 247
5 21 42
5 22 67
5 23 110
5 24 142
5 25 50
5 26 0
5 27 145
5 28 100
5 29 263
5 30 207
5 31 221
5 32 181
5 33 176
5 34 113
5 35 83
5 36 55
5 37 138
5 38 51
5 39 33
5 40 93
5 41 135
5 42 135
5 43 149
5 44 209
5 45 209
5 46 161
5 47 165
5 48 76
5 49 43
5 50 231
5 51 98
5 52 17
5 53 236
5 54 238
5 55 258
5 56 146
5 57 255
5 58 148
5 59 198
5 60 65
5 61 203
5 62 72
5 63 35
5 64 95
5 65 130
5 66 193
5 67 174
5 68 168
5 69 115
5 70 201
5 71 196
5 72 196
5 73 111
5 74 167
5 75 4
5 76 51
5 77 50
5 78 31
5 79 70
5 80 134
5 81 54
5 82 65
5 83 23
5 84 50
5 85 21
5 86 255
5 87 76
5 88 160
5 89 107
5 90 268
6 7 207
6 8 251
6 9 249
6 10 52
6 11 179
6 12 15
6 13 212
6 14 154
6 15 97
6 16 74
6 17 259
6 18 3
6 19 72
6 20 199
6 21 166
6 22 208
6 23 82
6 24 129
6 25 260
6 26 243
6 27 152
6 28 3
6 29 3
6 30 123
6 31 25
6 32 247
6 33 268
6 34 107
6 35 247
6 36 75
6 37 177
6 38 242
6 39 102
6 40 60
6 41 233
6 42 114
6 43 76
6 44 107
6 45 157
6 46 234
6 47 136
6 48 88
6 49 48
6 50 209
6 51 256
6 52 31
6 53 61
6 54 222
6 55 47
6 56 77
6 57 81
6 58 246
6 59 71
6 60 97
6 61 228
6 62 235
6 63 27
6 64 16
6 65 91
6 66 174
6 67 225
6 68 112
6 69 219
6 70 166
6 71 249
6 72 170
6 73 260
6 74 220
6 75 54
6 76 194
6 77 77
6 78 30
6 79 187
6 80 73
6 81 178
6 82 63
6 83 50
6 84 140
6 85 57
6 86 108
6 87 178
6 88 50
6 89 257
6 90 216
7 8 261
7 9 91
7 10 223
7 11 124
7 12 167
7 13 221
7 14 53
7 15 162
7 16 102
7 17 199
7 18 253
7 19 170
7 20 230
7 21 207
7 22 49
7 23 29
7 24 15
7 25 44
7 26 246
7 27 204
7 28 191
7 29 37
7 30 24
7 31 126
7 32 89
7 33 230
7 34 26
7 35 2
7 36 125
7 37 9
7 38 38
7 39 222
7 40 234
7 41 242
7 42 89
7 43 208
7 44 163
7 45 240
7 46 15
7 47 171
7 48 250
7 49 186
7 50 172
7 51 241
7 52 191
7 53 167
7 54 89
7 55 162
7 56 259
7 57 171
7 58 149
7 59 149
7 60 66
7 61 176
7 62 220
7 63 17
7 64 129
7 65 242
7 66 47
7 67 65
7 68 29
7 69 82
7 70 46
7 71 149
7 72 70
7 73 146
7 74 173
7 75 158
7 76 228
7 77 31
7 78 156
7 79 265
7 80 248
7 81 170
7 82 81
7 83 117
7 84 150
7 85 209
7 86 211
7 87 124
7 88 225
7 89 122
7 90 132
8 9 36
8 10 86
8 11 38
8 12 200
8 13 233
8 14 92
8 15 210
8 16 114
8 17 201
8 18 44
8 19 258
8 20 254
8 21 219
8 22 266
8 23 72
8 24 179
8 25 65
8 26 148
8 27 110
8 28 225
8 29 217
8 30 263
8 31 165
8 32 114
8 33 99
8 34 182
8 35 97
8 36 60
8 37 8
8 38 43
8 39 50
8 40 236
8 41 77
8 42 122
8 43 185
8 44 232
8 45 61
8 46 116
8 47 23
8 48 242
8 49 202
8 50 15
8 51 189
8 52 146
8 53 88
8 54 210
8 55 242
8 56 261
8 57 158
8 58 228
8 59 95
8 60 256
8 61 260
8 62 50
8 63 218
8 64 268
8 65 176
8 66 7
8 67 250
8 68 91
8 69 46
8 70 210
8 71 146
8 72 15
8 73 160
8 74 107
8 75 150
8 76 78
8 77 261
8 78 134
8 79 145
8 80 38
8 81 229
8 82 95
8 83 184
8 84 217
8 85 91
8 86 102
8 87 99
8 88 178
8 89 224
8 90 257
9 10 196
9 11 88
9 12 167
9 13 122
9 14 150
9 15 252
9 16 203
9 17 68
9 18 34
9 19 217
9 20 210
9 21 106
9 22 162
9 23 234
9 24 27
9 25 178
9 26 216
9 27 105
9 28 208
9 29 215
9 30 234
9 31 156
9 32 202
9 33 197
9 34 22
9 35 136
9 36 124
9 37 94
9 38 70
9 39 193
9 40 174
9 41 111
9 42 10
9 43 42
9 44 199
9 45 7
9 46 239
9 47 81
9 48 32
9 49 40
9 50 9
9 51 64
9 52 12
9 53 112
9 54 160
9 55 154
9 56 48
9 57 114
9 58 55
9 59 233
9 60 144
9 61 27
9 62 12
9 63 114
9 64 72
9 65 23
9 66 4
9 67 171
9 68 194
9 69 133
9 70 251
9 71 240
9 72 268
9 73 177
9 74 249
9 75 134
9 76 213
9 77 149
9 78 34
9 79 94
9 80 38
9 81 174
9 82 45
9 83 205
9 84 178
9 85 20
9 86 134
9 87 110
9 88 237
9 89 156
9 90 198
10 11 4
10 12 91
10 13 15
10 14 1
10 15 76
10 16 263
10 17 138
10 18 106
10 19 51
10 20 248
10 21 0
10 22 211
10 23 117
10 24 221
10 25 154
10 26 133
10 27 77
10 28 127
10 29 124
10 30 16
10 31 188
10 32 114
10 33 44
10 34 267
10 35 259
10 36 111
10 37 198
10 38 247
10 39 151
10 40 119
10 41 94
10 42 192
10 43 52
10 44 72
10 45 80
10 46 34
10 47 263
10 48 5
10 49 32
10 50 184
10 51 168
10 52 169
10 53 192
10 54 59
10 55 189
10 56 85
10 57 253
10 58 75
10 59 43
10 60 212
10 61 46
10 62 242
10 63 108
10 64 32
10 65 86
10 66 258
10 67 156
10 68 186
10 69 31
10 70 196
10 71 183
10 72 184
10 73 50
10 74 135
10 75 48
10 76 238
10 77 87
10 78 60
10 79 168
10 80 182
10 81 233
10 82 85
10 83 144
10 84 179
10 85 249
10 86 188
10 87 70
10 88 174
10 89 232
10 90 0
11 12 259
11 13 24
11 14 213
11 15 153
11 16 232
11 17 239
11 18 193
11 19 111
11 20 215
11 21 117
11 22 124
11 23 228
11 24 143
11 25 62
11 26 77
11 27 208
11 28 165
11 29 145
11 30 190
11 31 210
11 32 177
11 33 11
11 34 7
11 35 96
11 36 267
11 37 209
11 38 264
11 39 109
11 40 263
11 41 234
11 42 88
11 43 48
11 44 90
11 45 23
11 46 239
11 47 20
11 48 259
11 49 183
11 50 79
11 51 30
11 52 162
11 53 90
11 54 87
11 55 201
11 56 34
11 57 50
11 58 122
11 59 15
11 60 112
11 61 43
11 62 122
11 63 6
11 64 48
11 65 267
11 66 1
11 67 18
11 68 248
11 69 252
11 70 69
11 71 172
11 72 13
11 73 4
11 74 172
11 75 23
11 76 180
11 77 190
11 78 264
11 79 135
11 80 224
11 81 185
11 82 29
11 83 30
11 84 42
11 85 149
11 86 86
11 87 142
11 88 185
11 89 53
11 90 93
12 13 195
12 14 243
12 15 111
12 16 49
12 17 107
12 18 162
12 19 67
12 20 109
12 21 148
12 22 33
12 23 160
12 24 48
12 25 189
12 26 94
12 27 63
12 28 139
12 29 133
12 30 206
12 31 0
12 32 0
12 33 49
12 34 8
12 35 159
12 36 21
12 37 239
12 38 224
12 39 215
12 40 169
12 41 195
12 42 106
12 43 239
12 44 255
12 45 268
12 46 138
12 47 251
12 48 132
12 49 244
12 50 202
12 51 35
12 52 238
12 53 228
12 54 115
12 55 153
12 56 122
12 57 177
12 58 97
12 59 239
12 60 101
12 61 238
12 62 114
12 63 151
12 64 43
12 65 191
12 66 252
12 67 195
12 68 210
12 69 232
12 70 207
12 71 207
12 72 103
12 73 218
12 74 194
12 75 14
12 76 110
12 77 137
12 78 110
12 79 139
12 80 169
12 81 71
12 82 223
12 83 232
12 84 21
12 85 4
12 86 59
12 87 209
12 88 150
12 89 76
12 90 144
13 14 55
13 15 259
13 16 80
13 17 166
13 18 42
13 19 32
13 20 233
13 21 178
13 22 38
13 23 47
13 24 155
13 25 207
13 26 48
13 27 239
13 28 150
13 29 85
13 30 216
13 31 127
13 32 0
13 33 0
13 34 202
13 35 261
13 36 125
13 37 91
13 38 33
13 39 219
13 40 142
13 41 246
13 42 159
13 43 117
13 44 226
13 45 117
13 46 191
13 47 132
13 48 248
13 49 2
13 50 156
13 51 17
13 52 229
13 53 203
13 54 221
13 55 37
13 56 42
13 57 147
13 58 134
13 59 51
13 60 69
13 61 60
13 62 123
13 63 108
13 64 119
13 65 165
13 66 89
13 67 105
13 68 154
13 69 2
13 70 48
13 71 75
13 72 176
13 73 90
13 74 94
13 75 244
13 76 10
13 77 166
13 78 54
13 79 41
13 80 72
13 81 47
13 82 154
13 83 140
13 84 197
13 85 95
13 86 122
13 87 70
13 88 129
13 89 36
13 90 85
14 15 214
14 16 185
14 17 185
14 18 247
14 19 59
14 20 36
14 21 203
14 22 76
14 23 269
14 24 153
14 25 3
14 26 6
14 27 54
14 28 228
14 29 2
14 30 194
14 31 117
14 32 15
14 33 212
14 34 46
14 35 196
14 36 258
14 37 89
14 38 206
14 39 10
14 40 141
14 41 226
14 42 171
14 43 26
14 44 246
14 45 35
14 46 94
14 47 22
14 48 65
14 49 142
14 50 151
14 51 65
14 52 11
14 53 229
14 54 69
14 55 92
14 56 86
14 57 192
14 58 198
14 59 145
14 60 172
14 61 182
14 62 242
14 63 51
14 64 49
14 65 62
14 66 24
14 67 182
14 68 206
14 69 62
14 70 155
14 71 47
14 72 88
14 73 228
14 74 76
14 75 96
14 76 218
14 77 137
14 78 22
14 79 221
14 80 63
14 81 63
14 82 176
14 83 11
14 84 67
14 85 108
14 86 72
14 87 71
14 88 26
14 89 144
14 90 203
15 16 207
15 17 28
15 18 86
15 19 244
15 20 144
15 21 224
15 22 195
15 23 61
15 24 127
15 25 21
15 26 121
15 27 251
15 28 251
15 29 193
15 30 133
15 31 54
15 32 192
15 33 76
15 34 147
15 35 96
15 36 34
15 37 126
15 38 14
15 39 67
15 40 182
15 41 242
15 42 0
15 43 12
15 44 217
15 45 50
15 46 237
15 47 124
15 48 219
15 49 109
15 50 258
15 51 76
15 52 98
15 53 0
15 54 120
15 55 262
15 56 5
15 57 86
15 58 147
15 59 46
15 60 196
15 61 176
15 62 42
15 63 247
15 64 46
15 65 122
15 66 210
15 67 224
15 68 8
15 69 76
15 70 106
15 71 193
15 72 122
15 73 178
15 74 62
15 75 88
15 76 92
15 77 52
15 78 179
15 79 154
15 80 184
15 81 151
15 82 19
15 83 81
15 84 196
15 85 81
15 86 221
15 87 268
15 88 196
15 89 129
15 90 49
16 17 246
16 18 60
16 19 67
16 20 153
16 21 160
16 22 78
16 23 10
16 24 100
16 25 180
16 26 8
16 27 205
16 28 262
16 29 30
16 30 166
16 31 16
16 32 1
16 33 33
16 34 107
16 35 184
16 36 70
16 37 97
16 38 24
16 39 231
16 40 226
16 41 21
16 42 240
16 43 211
16 44 107
16 45 235
16 46 81
16 47 57
16 48 123
16 49 178
16 50 203
16 51 57
16 52 41
16 53 167
16 54 267
16 55 96
16 56 148
16 57 19
16 58 230
16 59 210
16 60 12
16 61 51
16 62 158
16 63 234
16 64 28
16 65 168
16 66 214
16 67 211
16 68 181
16 69 33
16 70 241
16 71 223
16 72 122
16 73 264
16 74 5
16 75 170
16 76 155
16 77 152
16 78 228
16 79 70
16 80 152
16 81 80
16 82 169
16 83 71
16 84 90
16 85 61
16 86 212
16 87 137
16 88 39
16 89 240
16 90 169
17 18 245
17 19 77
17 20 7
17 21 53
17 22 12
17 23 60
17 24 44
17 25 175
17 26 121
17 27 261
17 28 194
17 29 156
17 30 150
17 31 44
17 32 171
17 33 7
17 34 146
17 35 96
17 36 259
17 37 103
17 38 226
17 39 249
17 40 230
17 41 212
17 42 78
17 43 212
17 44 37
17 45 260
17 46 129
17 47 57
17 48 212
17 49 43
17 50 34
17 51 80
17 52 173
17 53 226
17 54 137
17 55 230
17 56 202
17 57 84
17 58 121
17 59 158
17 60 186
17 61 40
17 62 81
17 63 78
17 64 102
17 65 75
17 66 36
17 67 194
17 68 268
17 69 34
17 70 195
17 71 84
17 72 258
17 73 104
17 74 251
17 75 67
17 76 103
17 77 261
17 78 2
17 79 147
17 80 237
17 81 239
17 82 1
17 83 59
17 84 178
17 85 177
17 86 258
17 87 264
17 88 258
17 89 160
17 90 61
18 19 74
18 20 7
18 21 143
18 22 42
18 23 181
18 24 48
18 25 198
18 26 227
18 27 234
18 28 81
18 29 265
18 30 51
18 31 190
18 32 193
18 33 187
18 34 90
18 35 248
18 36 150
18 37 50
18 38 193
18 39 168
18 40 190
18 41 223
18 42 234
18 43 87
18 44 213
18 45 51
18 46 111
18 47 55
18 48 119
18 49 232
18 50 4
18 51 237
18 52 187
18 53 90
18 54 133
18 55 38
18 56 133
18 57 104
18 58 107
18 59 68
18 60 244
18 61 3
18 62 167
18 63 94
18 64 77
18 65 145
18 66 49
18 67 239
18 68 116
18 69 204
18 70 167
18 71 131
18 72 58
18 73 104
18 74 8
18 75 83
18 76 180
18 77 210
18 78 189
18 79 39
18 80 93
18 81 262
18 82 115
18 83 43
18 84 13
18 85 94
18 86 186
18 87 170
18 88 98
18 89 232
18 90 169
19 20 105
19 21 219
19 22 9
19 23 108
19 24 186
19 25 8
19 26 16
19 27 230
19 28 166
19 29 17
19 30 255
19 31 42
19 32 63
19 33 124
19 34 89
19 35 136
19 36 165
19 37 44
19 38 198
19 39 218
19 40 43
19 41 259
19 42 248
19 43 141
19 44 18
19 45 125
19 46 221
19 47 242
19 48 17
19 49 10
19 50 21
19 51 118
19 52 107
19 53 154
19 54 46
19 55 73
19 56 234
19 57 152
19 58 95
19 59 204
19 60 121
19 61 218
19 62 85
19 63 251
19 64 140
19 65 98
19 66 235
19 67 213
19 68 167
19 69 132
19 70 144
19 71 246
19 72 68
19 73 46
19 74 92
19 75 54
19 76 216
19 77 81
19 78 32
19 79 172
19 80 123
19 81 13
19 82 268
19 83 76
19 84 126
19 85 175
19 86 127
19 87 183
19 88 206
19 89 99
19 90 149
20 21 261
20 22 117
20 23 148
20 24 36
20 25 21
20 26 187
20 27 105
20 28 128
20 29 71
20 30 111
20 31 230
20 32 145
20 33 135
20 34 116
20 35 7
20 36 14
20 37 36
20 38 54
20 39 196
20 40 94
20 41 112
20 42 158
20 43 246
20 44 211
20 45 149
20 46 221
20 47 14
20 48 123
20 49 240
20 50 63
20 51 122
20 52 191
20 53 159
20 54 28
20 55 40
20 56 119
20 57 46
20 58 134
20 59 98
20 60 97
20 61 191
20 62 56
20 63 69
20 64 87
20 65 164
20 66 231
20 67 68
20 68 38
20 69 158
20 70 191
20 71 127
20 72 80
20 73 203
20 74 170
20 75 146
20 76 161
20 77 199
20 78 182
20 79 121
20 80 235
20 81 139
20 82 208
20 83 241
20 84 221
20 85 1
20 86 164
20 87 120
20 88 225
20 89 43
20 90 8
21 22 53
21 23 187
21 24 100
21 25 56
21 26 260
21 27 43
21 28 31
21 29 243
21 30 97
21 31 26
21 32 86
21 33 140
21 34 208
21 35 205
21 36 91
21 37 86
21 38 108
21 39 19
21 40 254
21 41 252
21 42 13
21 43 157
21 44 45
21 45 185
21 46 25
21 47 70
21 48 201
21 49 227
21 50 178
21 51 244
21 52 261
21 53 20
21 54 83
21 55 185
21 56 126
21 57 47
21 58 51
21 59 202
21 60 94
21 61 55
21 62 232
21 63 195
21 64 18
21 65 83
21 66 50
21 67 164
21 68 42
21 69 135
21 70 150
21 71 241
21 72 6
21 73 49
21 74 141
21 75 121
21 76 112
21 77 190
21 78 131
21 79 219
21 80 194
21 81 150
21 82 227
21 83 192
21 84 112
21 85 260
21 86 210
21 87 184
21 88 7
21 89 144
21 90 258
22 23 48
22 24 167
22 25 139
22 26 251
22 27 74
22 28 23
22 29 256
22 30 195
22 31 131
22 32 49
22 33 220
22 34 262
22 35 36
22 36 215
22 37 209
22 38 234
22 39 61
22 40 188
22 41 50
22 42 220
22 43 89
22 44 96
22 45 88
22 46 116
22 47 126
22 48 173
22 49 156
22 50 196
22 51 176
22 52 109
22 53 244
22 54 264
22 55 220
22 56 85
22 57 25
22 58 45
22 59 49
22 60 20
22 61 199
22 62 107
22 63 264
22 64 10
22 65 45
22 66 24
22 67 217
22 68 61
22 69 99
22 70 47
22 71 106
22 72 222
22 73 124
22 74 10
22 75 23
22 76 59
22 77 159
22 78 160
22 79 89
22 80 115
22 81 214
22 82 15
22 83 95
22 84 10
22 85 52
22 86 89
22 87 40
22 88 147
22 89 45
22 90 249
23 24 79
23 25 268
23 26 13
23 27 92
23 28 137
23 29 35
23 30 193
23 31 0
23 32 20
23 33 177
23 34 198
23 35 179
23 36 40
23 37 164
23 38 40
23 39 81
23 40 245
23 41 169
23 42 14
23 43 9
23 44 73
23 45 228
23 46 88
23 47 145
23 48 222
23 49 211
23 50 127
23 51 206
23 52 69
23 53 74
23 54 199
23 55 101
23 56 122
23 57 181
23 58 115
23 59 22
23 60 61
23 61 7
23 62 110
23 63 97
23 64 5
23 65 129
23 66 93
23 67 121
23 68 205
23 69 80
23 70 21
23 71 54
23 72 8
23 73 139
23 74 93
23 75 133
23 76 8
23 77 141
23 78 235
23 79 129
23 80 172
23 81 92
23 82 166
23 83 79
23 84 20
23 85 88
23 86 1
23 87 72
23 88 199
23 89 133
23 90 105
24 25 98
24 26 16
24 27 49
24 28 65
24 29 137
24 30 106
24 31 151
24 32 175
24 33 83
24 34 37
24 35 87
24 36 96
24 37 115
24 38 212
24 39 194
24 40 165
24 41 79
24 42 261
24 43 41
24 44 66
24 45 59
24 46 156
24 47 73
24 48 19
24 49 111
24 50 73
24 51 206
24 52 45
24 53 3
24 54 248
24 55 91
24 56 204
24 57 147
24 58 59
24 59 183
24 60 268
24 61 38
24 62 8
24 63 35
24 64 268
24 65 31
24 66 131
24 67 88
24 68 32
24 69 260
24 70 76
24 71 161
24 72 96
24 73 241
24 74 130
24 75 228
24 76 91
24 77 258
24 78 263
24 79 40
24 80 6
24 81 234
24 82 52
24 83 186
24 84 267
24 85 1
24 86 149
24 87 230
24 88 241
24 89 226
24 90 35
25 26 131
25 27 113
25 28 67
25 29 232
25 30 182
25 31 21
25 32 118
25 33 173
25 34 232
25 35 148
25 36 233
25 37 15
25 38 187
25 39 230
25 40 158
25 41 32
25 42 25
25 43 242
25 44 222
25 45 154
25 46 21
25 47 209
25 48 225
25 49 31
25 50 253
25 51 191
25 52 147
25 53 113
25 54 25
25 55 93
25 56 33
25 57 263
25 58 88
25 59 184
25 60 224
25 61 19
25 62 100
25 63 170
25 64 144
25 65 151
25 66 123
25 67 76
25 68 177
25 69 172
25 70 123
25 71 61
25 72 109
25 73 104
25 74 172
25 75 66
25 76 140
25 77 98
25 78 241
25 79 234
25 80 200
25 81 182
25 82 215
25 83 44
25 84 82
25 85 135
25 86 146
25 87 22
25 88 248
25 89 3
25 90 225
26 27 146
26 28 83
26 29 228
26 30 8
26 31 187
26 32 184
26 33 2
26 34 166
26 35 72
26 36 202
26 37 265
26 38 235
26 39 263
26 40 126
26 41 215
26 42 175
26 43 161
26 44 169
26 45 184
26 46 37
26 47 102
26 48 144
26 49 6
26 50 3
26 51 186
26 52 131
26 53 144
26 54 141
26 55 156
26 56 7
26 57 248
26 58 247
26 59 109
26 60 182
26 61 222
26 62 174
26 63 243
26 64 35
26 65 65
26 66 109
26 67 185
26 68 10
26 69 254
26 70 128
26 71 250
26 72 115
26 73 131
26 74 220
26 75 29
26 76 86
26 77 110
26 78 251
26 79 248
26 80 86
26 81 135
26 82 268
26 83 146
26 84 70
26 85 96
26 86 35
26 87 114
26 88 157
26 89 18
26 90 221
27 28 252
27 29 64
27 30 244
27 31 86
27 32 43
27 33 24
27 34 241
27 35 95
27 36 22
27 37 235
27 38 202
27 39 119
27 40 251
27 41 23
27 42 259
27 43 63
27 44 35
27 45 166
27 46 84
27 47 127
27 48 67
27 49 204
27 50 28
27 51 160
27 52 197
27 53 123
27 54 131
27 55 229
27 56 248
27 57 116
27 58 183
27 59 27
27 60 99
27 61 211
27 62 66
27 63 174
27 64 191
27 65 239
27 66 132
27 67 141
27 68 57
27 69 221
27 70 27
27 71 72
27 72 34
27 73 30
27 74 153
27 75 112
27 76 169
27 77 128
27 78 209
27 79 74
27 80 134
27 81 47
27 82 222
27 83 230
27 84 25
27 85 255
27 86 101
27 87 20
27 88 25
27 89 196
27 90 97
28 29 218
28 30 180
28 31 40
28 32 86
28 33 51
28 34 255
28 35 144
28 36 76
28 37 79
28 38 93
28 39 208
28 40 59
28 41 124
28 42 151
28 43 220
28 44 43
28 45 224
28 46 160
28 47 148
28 48 70
28 49 16
28 50 234
28 51 19
28 52 122
28 53 24
28 54 213
28 55 136
28 56 255
28 57 62
28 58 132
28 59 170
28 60 260
28 61 243
28 62 42
28 63 240
28 64 10
28 65 16
28 66 162
28 67 151
28 68 129
28 69 254
28 70 81
28 71 257
28 72 176
28 73 175
28 74 238
28 75 192
28 76 71
28 77 206
28 78 149
28 79 80
28 80 258
28 81 124
28 82 37
28 83 46
28 84 217
28 85 24
28 86 251
28 87 232
28 88 5
28 89 108
28 90 197
29 30 92
29 31 59
29 32 204
29 33 204
29 34 130
29 35 206
29 36 98
29 37 215
29 38 243
29 39 174
29 40 51
29 41 196
29 42 209
29 43 177
29 44 50
29 45 141
29 46 82
29 47 11
29 48 180
29 49 138
29 50 79
29 51 264
29 52 27
29 53 61
29 54 109
29 55 201
29 56 78
29 57 121
29 58 60
29 59 188
29 60 72
29 61 70
29 62 151
29 63 194
29 64 65
29 65 248
29 66 79
29 67 212
29 68 185
29 69 266
29 70 3
29 71 210
29 72 24
29 73 114
29 74 53
29 75 125
29 76 0
29 77 160
29 78 214
29 79 243
29 80 112
29 81 4
29 82 242
29 83 59
29 84 247
29 85 27
29 86 1
29 87 161
29 88 58
29 89 190
29 90 90
30 31 110
30 32 144
30 33 55
30 34 158
30 35 179
30 36 205
30 37 21
30 38 167
30 39 56
30 40 153
30 41 38
30 42 229
30 43 9
30 44 228
30 45 13
30 46 259
30 47 172
30 48 43
30 49 10
30 50 87
30 51 65
30 52 160
30 53 267
30 54 256
30 55 180
30 56 6
30 57 118
30 58 171
30 59 153
30 60 135
30 61 31
30 62 114
30 63 20
30 64 46
30 65 70
30 66 169
30 67 94
30 68 196
30 69 101
30 70 182
30 71 145
30 72 41
30 73 0
30 74 83
30 75 149
30 76 117
30 77 79
30 78 66
30 79 133
30 80 235
30 81 98
30 82 167
30 83 64
30 84 251
30 85 10
30 86 202
30 87 255
30 88 80
30 89 87
30 90 213
31 32 105
31 33 199
31 34 185
31 35 57
31 36 56
31 37 152
31 38 64
31 39 220
31 40 11
31 41 173
31 42 98
31 43 20
31 44 235
31 45 119
31 46 175
31 47 203
31 48 16
31 49 251
31 50 61
31 51 179
31 52 22
31 53 115
31 54 76
31 55 185
31 56 225
31 57 157
31 58 83
31 59 214
31 60 99
31 61 97
31 62 255
31 63 199
31 64 238
31 65 91
31 66 13
31 67 236
31 68 0
31 69 177
31 70 263
31 71 91
31 72 29
31 73 206
31 74 177
31 75 120
31 76 24
31 77 62
31 78 31
31 79 21
31 80 141
31 81 49
31 82 12
31 83 196
31 84 23
31 85 35
31 86 1
31 87 207
31 88 37
31 89 175
31 90 77
32 33 11
32 34 207
32 35 99
32 36 81
32 37 133
32 38 135
32 39 121
32 40 117
32 41 228
32 42 105
32 43 176
32 44 203
32 45 15
32 46 63
32 47 104
32 48 10
32 49 162
32 50 132
32 51 125
32 52 154
32 53 74
32 54 70
32 55 77
32 56 128
32 57 128
32 58 117
32 59 80
32 60 182
32 61 216
32 62 109
32 63 119
32 64 45
32 65 69
32 66 190
32 67 219
32 68 69
32 69 29
32 70 95
32 71 18
32 72 64
32 73 51
32 74 171
32 75 52
32 76 18
32 77 6
32 78 43
32 79 57
32 80 63
32 81 68
32 82 259
32 83 64
32 84 156
32 85 244
32 86 177
32 87 107
32 88 153
32 89 194
32 90 65
33 34 179
33 35 33
33 36 148
33 37 92
33 38 5
33 39 199
33 40 249
33 41 137
33 42 79
33 43 126
33 44 62
33 45 122
33 46 24
33 47 16
33 48 203
33 49 50
33 50 150
33 51 183
33 52 150
33 53 67
33 54 235
33 55 183
33 56 167
33 57 199
33 58 138
33 59 176
33 60 65
33 61 37
33 62 269
33 63 187
33 64 58
33 65 260
33 66 78
33 67 189
33 68 180
33 69 79
33 70 65
33 71 242
33 72 146
33 73 193
33 74 171
33 75 45
33 76 26
33 77 23
33 78 167
33 79 110
33 80 89
33 81 252
33 82 103
33 83 66
33 84 167
33 85 37
33 86 70
33 87 265
33 88 241
33 89 79
33 90 208
34 35 185
34 36 13
34 37 152
34 38 80
34 39 136
34 40 117
34 41 256
34 42 84
34 43 85
34 44 13
34 45 169
34 46 240
34 47 161
34 48 82
34 49 238
34 50 135
34 51 83
34 52 162
34 53 20
34 54 255
34 55 229
34 56 179
34 57 28
34 58 93
34 59 12
34 60 55
34 61 15
34 62 149
34 63 226
34 64 118
34 65 89
34 66 230
34 67 73
34 68 115
34 69 208
34 70 244
34 71 172
34 72 69
34 73 8
34 74 83
34 75 53
34 76 133
34 77 223
34 78 175
34 79 176
34 80 126
34 81 230
34 82 110
34 83 9
34 84 185
34 85 149
34 86 78
34 87 32
34 88 139
34 89 34
34 90 18
35 36 98
35 37 50
35 38 166
35 39 255
35 40 108
35 41 86
35 42 238
35 43 74
35 44 160
35 45 207
35 46 96
35 47 250
35 48 244
35 49 201
35 50 13
35 51 49
35 52 120
35 53 56
35 54 220
35 55 150
35 56 52
35 57 143
35 58 10
35 59 4
35 60 151
35 61 145
35 62 146
35 63 151
35 64 61
35 65 245
35 66 255
35 67 88
35 68 50
35 69 31
35 70 12
35 71 198
35 72 210
35 73 40
35 74 27
35 75 144
35 76 6
35 77 221
35 78 31
35 79 17
35 80 123
35 81 96
35 82 234
35 83 200
35 84 43
35 85 159
35 86 226
35 87 181
35 88 127
35 89 27
35 90 90
36 37 134
36 38 253
36 39 138
36 40 22
36 41 137
36 42 75
36 43 219
36 44 190
36 45 6
36 46 208
36 47 242
36 48 60
36 49 56
36 50 157
36 51 26
36 52 35
36 53 72
36 54 141
36 55 219
36 56 141
36 57 129
36 58 225
36 59 261
36 60 104
36 61 223
36 62 238
36 63 217
36 64 133
36 65 77
36 66 211
36 67 62
36 68 60
36 69 34
36 70 115
36 71 252
36 72 45
36 73 205
36 74 177
36 75 27
36 76 27
36 77 234
36 78 48
36 79 231
36 80 160
36 81 43
36 82 158
36 83 219
36 84 110
36 85 112
36 86 49
36 87 111
36 88 206
36 89 153
36 90 39
37 38 15
37 39 150
37 40 5
37 41 112
37 42 256
37 43 168
37 44 206
37 45 107
37 46 240
37 47 141
37 48 102
37 49 169
37 50 256
37 51 146
37 52 13
37 53 16
37 54 85
37 55 61
37 56 158
37 57 176
37 58 224
37 59 155
37 60 251
37 61 116
37 62 72
37 63 252
37 64 148
37 65 198
37 66 224
37 67 244
37 68 0
37 69 181
37 70 35
37 71 159
37 72 88
37 73 63
37 74 225
37 75 159
37 76 192
37 77 114
37 78 44
37 79 121
37 80 39
37 81 233
37 82 194
37 83 21
37 84 186
37 85 97
37 86 66
37 87 28
37 88 221
37 89 51
37 90 22
38 39 191
38 40 204
38 41 6
38 42 21
38 43 246
38 44 243
38 45 217
38 46 11
38 47 219
38 48 205
38 49 143
38 50 182
38 51 258
38 52 55
38 53 117
38 54 48
38 55 114
38 56 182
38 57 243
38 58 184
38 59 123
38 60 195
38 61 138
38 62 54
38 63 133
38 64 141
38 65 152
38 66 236
38 67 17
38 68 235
38 69 267
38 70 44
38 71 131
38 72 55
38 73 106
38 74 173
38 75 59
38 76 144
38 77 118
38 78 227
38 79 143
38 80 116
38 81 45
38 82 183
38 83 101
38 84 223
38 85 122
38 86 134
38 87 183
38 88 39
38 89 183
38 90 195
39 40 164
39 41 187
39 42 17
39 43 197
39 44 110
39 45 180
39 46 42
39 47 44
39 48 103
39 49 56
39 50 134
39 51 149
39 52 186
39 53 244
39 54 59
39 55 109
39 56 66
39 57 240
39 58 31
39 59 54
39 60 204
39 61 119
39 62 105
39 63 60
39 64 231
39 65 12
39 66 165
39 67 65
39 68 60
39 69 57
39 70 64
39 71 137
39 72 23
39 73 38
39 74 25
39 75 167
39 76 267
39 77 110
39 78 237
39 79 213
39 80 106
39 81 43
39 82 128
39 83 157
39 84 241
39 85 7
39 86 233
39 87 219
39 88 12
39 89 206
39 90 202
40 41 45
40 42 203
40 43 20
40 44 142
40 45 252
40 46 214
40 47 147
40 48 38
40 49 17
40 50 63
40 51 205
40 52 122
40 53 187
40 54 114
40 55 11
40 56 169
40 57 144
40 58 144
40 59 1
40 60 158
40 61 19
40 62 267
40 63 170
40 64 168
40 65 129
40 66 80
40 67 170
40 68 256
40 69 244
40 70 193
40 71 190
40 72 118
40 73 156
40 74 82
40 75 166
40 76 223
40 77 154
40 78 26
40 79 109
40 80 225
40 81 203
40 82 110
40 83 24
40 84 72
40 85 210
40 86 14
40 87 153
40 88 2
40 89 10
40 90 26
41 42 159
41 43 201
41 44 67
41 45 194
41 46 13
41 47 100
41 48 182
41 49 187
41 50 31
41 51 91
41 52 243
41 53 73
41 54 68
41 55 217
41 56 1
41 57 243
41 58 32
41 59 199
41 60 217
41 61 115
41 62 220
41 63 112
41 64 70
41 65 243
41 66 5
41 67 111
41 68 128
41 69 51
41 70 20
41 71 252
41 72 90
41 73 235
41 74 235
41 75 34
41 76 54
41 77 62
41 78 196
41 79 113
41 80 43
41 81 101
41 82 265
41 83 261
41 84 207
41 85 17
41 86 181
41 87 78
41 88 240
41 89 87
41 90 256
42 43 145
42 44 151
42 45 262
42 46 59
42 47 217
42 48 124
42 49 43
42 50 247
42 51 101
42 52 150
42 53 240
42 54 62
42 55 52
42 56 118
42 57 82
42 58 157
42 59 86
42 60 243
42 61 187
42 62 210
42 63 113
42 64 93
42 65 266
42 66 165
42 67 214
42 68 101
42 69 148
42 70 113
42 71 234
42 72 203
42 73 205
42 74 193
42 75 215
42 76 75
42 77 106
42 78 265
42 79 4
42 80 116
42 81 227
42 82 157
42 83 213
42 84 199
42 85 150
42 86 160
42 87 68
42 88 16
42 89 120
42 90 149
43 44 179
43 45 160
43 46 262
43 47 75
43 48 87
43 49 122
43 50 75
43 51 190
43 52 232
43 53 130
43 54 2
43 55 207
43 56 126
43 57 59
43 58 174
43 59 259
43 60 65
43 61 139
43 62 61
43 63 236
43 64 62
43 65 251
43 66 122
43 67 22
43 68 101
43 69 13
43 70 27
43 71 15
43 72 148
43 73 250
43 74 130
43 75 180
43 76 194
43 77 117
43 78 107
43 79 164
43 80 6
43 81 107
43 82 105
43 83 179
43 84 236
43 85 117
43 86 264
43 87 39
43 88 204
43 89 142
43 90 217
44 45 183
44 46 16
44 47 265
44 48 85
44 49 99
44 50 65
44 51 80
44 52 265
44 53 250
44 54 183
44 55 102
44 56 121
44 57 24
44 58 46
44 59 146
44 60 235
44 61 230
44 62 6
44 63 243
44 64 27
44 65 86
44 66 136
44 67 20
44 68 88
44 69 4
44 70 215
44 71 255
44 72 119
44 73 202
44 74 245
44 75 2
44 76 86
44 77 190
44 78 84
44 79 166
44 80 91
44 81 12
44 82 245
44 83 220
44 84 226
44 85 65
44 86 107
44 87 117
44 88 236
44 89 55
44 90 37
45 46 266
45 47 148
45 48 224
45 49 248
45 50 145
45 51 197
45 52 55
45 53 5
45 54 16
45 55 259
45 56 76
45 57 159
45 58 169
45 59 20
45 60 80
45 61 44
45 62 204
45 63 88
45 64 163
45 65 20
45 66 110
45 67 77
45 68 114
45 69 112
45 70 47
45 71 63
45 72 114
45 73 153
45 74 117
45 75 191
45 76 104
45 77 216
45 78 232
45 79 52
45 80 264
45 81 221
45 82 126
45 83 42
45 84 199
45 85 210
45 86 116
45 87 149
45 88 29
45 89 151
45 90 210
46 47 171
46 48 216
46 49 138
46 50 160
46 51 146
46 52 168
46 53 26
46 54 248
46 55 111
46 56 44
46 57 237
46 58 46
46 59 251
46 60 230
46 61 230
46 62 37
46 63 155
46 64 256
46 65 222
46 66 137
46 67 135
46 68 199
46 69 74
46 70 171
46 71 104
46 72 121
46 73 112
46 74 184
46 75 122
46 76 122
46 77 89
46 78 87
46 79 114
46 80 222
46 81 71
46 82 205
46 83 93
46 84 211
46 85 20
46 86 247
46 87 221
46 88 187
46 89 78
46 90 6
47 48 97
47 49 89
47 50 220
47 51 195
47 52 100
47 53 31
47 54 210
47 55 95
47 56 99
47 57 96
47 58 76
47 59 266
47 60 108
47 61 225
47 62 149
47 63 86
47 64 29
47 65 186
47 66 224
47 67 232
47 68 249
47 69 46
47 70 240
47 71 82
47 72 55
47 73 227
47 74 19
47 75 32
47 76 227
47 77 58
47 78 31
47 79 14
47 80 163
47 81 259
47 82 214
47 83 2
47 84 267
47 85 41
47 86 240
47 87 110
47 88 184
47 89 48
47 90 126
48 49 263
48 50 88
48 51 154
48 52 182
48 53 191
48 54 90
48 55 76
48 56 200
48 57 123
48 58 263
48 59 120
48 60 204
48 61 107
48 62 48
48 63 90
48 64 3
48 65 76
48 66 24
48 67 135
48 68 4
48 69 53
48 70 222
48 71 251
48 72 40
48 73 117
48 74 60
48 75 66
48 76 75
48 77 19
48 78 201
48 79 143
48 80 221
48 81 22
48 82 167
48 83 173
48 84 21
48 85 233
48 86 261
48 87 14
48 88 248
48 89 155
48 90 82
49 50 192
49 51 186
49 52 9
49 53 48
49 54 247
49 55 153
49 56 58
49 57 239
49 58 161
49 59 88
49 60 199
49 61 10
49 62 45
49 63 6
49 64 164
49 65 243
49 66 115
49 67 264
49 68 30
49 69 226
49 70 154
49 71 126
49 72 38
49 73 153
49 74 120
49 75 133
49 76 95
49 77 157
49 78 148
49 79 109
49 80 19
49 81 219
49 82 142
49 83 8
49 84 157
49 85 250
49 86 94
49 87 151
49 88 16
49 89 49
49 90 108
50 51 162
50 52 256
50 53 248
50 54 237
50 55 80
50 56 208
50 57 121
50 58 138
50 59 82
50 60 222
50 61 176
50 62 14
50 63 265
50 64 259
50 65 10
50 66 167
50 67 5
50 68 99
50 69 218
50 70 269
50 71 223
50 72 229
50 73 147
50 74 168
50 75 230
50 76 94
50 77 127
50 78 119
50 79 68
50 80 240
50 81 251
50 82 59
50 83 227
50 84 199
50 85 249
50 86 75
50 87 233
50 88 160
50 89 83
50 90 150
51 52 54
51 53 32
51 54 125
51 55 161
51 56 36
51 57 248
51 58 229
51 59 1
51 60 163
51 61 133
51 62 261
51 63 2
51 64 190
51 65 151
51 66 246
51 67 109
51 68 142
51 69 194
51 70 7
51 71 224
51 72 254
51 73 152
51 74 117
51 75 159
51 76 90
51 77 223
51 78 251
51 79 123
51 80 244
51 81 13
51 82 131
51 83 194
51 84 14
51 85 8
51 86 40
51 87 170
51 88 129
51 89 207
51 90 7
52 53 13
52 54 188
52 55 243
52 56 239
52 57 57
52 58 194
52 59 204
52 60 222
52 61 232
52 62 16
52 63 4
52 64 154
52 65 2
52 66 165
52 67 53
52 68 213
52 69 123
52 70 1
52 71 222
52 72 79
52 73 5
52 74 252
52 75 130
52 76 211
52 77 82
52 78 130
52 79 247
52 80 0
52 81 121
52 82 95
52 83 231
52 84 150
52 85 96
52 86 189
52 87 100
52 88 213
52 89 98
52 90 103
53 54 265
53 55 24
53 56 195
53 57 194
53 58 57
53 59 54
53 60 168
53 61 2
53 62 117
53 63 41
53 64 49
53 65 29
53 66 200
53 67 229
53 68 199
53 69 148
53 70 191
53 71 223
53 72 14
53 73 72
53 74 6
53 75 21
53 76 123
53 77 116
53 78 221
53 79 33
53 80 128
53 81 84
53 82 131
53 83 266
53 84 73
53 85 34
53 86 124
53 87 55
53 88 35
53 89 244
53 90 153
54 55 54
54 56 22
54 57 91
54 58 130
54 59 223
54 60 173
54 61 198
54 62 47
54 63 128
54 64 232
54 65 42
54 66 64
54 67 108
54 68 113
54 69 42
54 70 267
54 71 80
54 72 124
54 73 54
54 74 25
54 75 223
54 76 215
54 77 261
54 78 93
54 79 229
54 80 93
54 81 51
54 82 203
54 83 135
54 84 38
54 85 206
54 86 233
54 87 16
54 88 245
54 89 141
54 90 108
55 56 104
55 57 179
55 58 268
55 59 134
55 60 211
55 61 206
55 62 155
55 63 112
55 64 157
55 65 132
55 66 234
55 67 175
55 68 225
55 69 24
55 70 255
55 71 161
55 72 241
55 73 102
55 74 140
55 75 152
55 76 57
55 77 167
55 78 224
55 79 1
55 80 265
55 81 165
55 82 243
55 83 13
55 84 31
55 85 58
55 86 41
55 87 73
55 88 30
55 89 167
55 90 171
56 57 189
56 58 84
56 59 193
56 60 234
56 61 48
56 62 115
56 63 208
56 64 224
56 65 143
56 66 248
56 67 260
56 68 107
56 69 114
56 70 268
56 71 72
56 72 225
56 73 159
56 74 97
56 75 147
56 76 11
56 77 30
56 78 203
56 79 257
56 80 41
56 81 249
56 82 111
56 83 139
56 84 77
56 85 164
56 86 253
56 87 266
56 88 59
56 89 34
56 90 233
57 58 43
57 59 184
57 60 107
57 61 261
57 62 167
57 63 74
57 64 27
57 65 173
57 66 215
57 67 264
57 68 28
57 69 213
57 70 39
57 71 0
57 72 68
57 73 268
57 74 121
57 75 184
57 76 190
57 77 75
57 78 130
57 79 108
57 80 101
57 81 83
57 82 139
57 83 74
57 84 242
57 85 228
57 86 171
57 87 88
57 88 168
57 89 198
57 90 208
58 59 268
58 60 150
58 61 74
58 62 5
58 63 80
58 64 219
58 65 127
58 66 116
58 67 41
58 68 26
58 69 187
58 70 79
58 71 195
58 72 17
58 73 14
58 74 63
58 75 159
58 76 239
58 77 70
58 78 0
58 79 101
58 80 154
58 81 2
58 82 144
58 83 206
58 84 244
58 85 136
58 86 98
58 87 69
58 88 231
58 89 196
58 90 68
59 60 128
59 61 126
59 62 261
59 63 36
59 64 99
59 65 6
59 66 225
59 67 225
59 68 192
59 69 0
59 70 97
59 71 54
59 72 137
59 73 237
59 74 190
59 75 206
59 76 30
59 77 69
59 78 226
59 79 119
59 80 84
59 81 252
59 82 236
59 83 247
59 84 96
59 85 229
59 86 210
59 87 61
59 88 155
59 89 84
59 90 188
60 61 224
60 62 186
60 63 133
60 64 35
60 65 179
60 66 171
60 67 72
60 68 213
60 69 175
60 70 133
60 71 46
60 72 99
60 73 140
60 74 242
60 75 145
60 76 4
60 77 0
60 78 87
60 79 194
60 80 108
60 81 36
60 82 201
60 83 31
60 84 72
60 85 236
60 86 235
60 87 135
60 88 119
60 89 154
60 90 86
61 62 56
61 63 125
61 64 124
61 65 36
61 66 157
61 67 105
61 68 56
61 69 142
61 70 173
61 71 203
61 72 186
61 73 126
61 74 109
61 75 16
61 76 110
61 77 112
61 78 15
61 79 30
61 80 3
61 81 243
61 82 133
61 83 167
61 84 135
61 85 175
61 86 40
61 87 228
61 88 78
61 89 130
61 90 53
62 63 133
62 64 94
62 65 18
62 66 38
62 67 182
62 68 88
62 69 229
62 70 108
62 71 84
62 72 29
62 73 67
62 74 39
62 75 264
62 76 27
62 77 21
62 78 208
62 79 133
62 80 162
62 81 174
62 82 90
62 83 228
62 84 37
62 85 76
62 86 229
62 87 232
62 88 76
62 89 207
62 90 86
63 64 153
63 65 261
63 66 265
63 67 255
63 68 121
63 69 110
63 70 63
63 71 213
63 72 37
63 73 57
63 74 157
63 75 163
63 76 62
63 77 140
63 78 245
63 79 68
63 80 58
63 81 103
63 82 189
63 83 83
63 84 14
63 85 133
63 86 110
63 87 24
63 88 22
63 89 22
63 90 3
64 65 92
64 66 153
64 67 245
64 68 25
64 69 255
64 70 151
64 71 70
64 72 22
64 73 72
64 74 2
64 75 32
64 76 227
64 77 232
64 78 257
64 79 23
64 80 153
64 81 207
64 82 33
64 83 119
64 84 195
64 85 167
64 86 187
64 87 54
64 88 240
64 89 150
64 90 138
65 66 109
65 67 243
65 68 259
65 69 11
65 70 155
65 71 5
65 72 25
65 73 203
65 74 84
65 75 170
65 76 66
65 77 8
65 78 167
65 79 16
65 80 207
65 81 216
65 82 85
65 83 8
65 84 186
65 85 24
65 86 131
65 87 82
65 88 100
65 89 114
65 90 233
66 67 214
66 68 1
66 69 16
66 70 206
66 71 229
66 72 174
66 73 264
66 74 140
66 75 239
66 76 219
66 77 144
66 78 156
66 79 67
66 80 206
66 81 43
66 82 69
66 83 161
66 84 105
66 85 172
66 86 190
66 87 147
66 88 199
66 89 142
66 90 27
67 68 160
67 69 78
67 70 23
67 71 83
67 72 131
67 73 182
67 74 51
67 75 163
67 76 96
67 77 8
67 78 121
67 79 64
67 80 115
67 81 9
67 82 222
67 83 63
67 84 248
67 85 240
67 86 84
67 87 98
67 88 57
67 89 176
67 90 185
68 69 222
68 70 87
68 71 232
68 72 214
68 73 63
68 74 55
68 75 124
68 76 207
68 77 42
68 78 269
68 79 91
68 80 151
68 81 83
68 82 14
68 83 62
68 84 91
68 85 222
68 86 224
68 87 5
68 88 142
68 89 129
68 90 244
69 70 204
69 71 252
69 72 41
69 73 233
69 74 243
69 75 195
69 76 167
69 77 80
69 78 29
69 79 98
69 80 230
69 81 107
69 82 13
69 83 218
69 84 181
69 85 235
69 86 52
69 87 102
69 88 43
69 89 228
69 90 244
70 71 85
70 72 206
70 73 75
70 74 87
70 75 90
70 76 129
70 77 16
70 78 203
70 79 40
70 80 175
70 81 47
70 82 226
70 83 19
70 84 23
70 85 123
70 86 145
70 87 8
70 88 93
70 89 176
70 90 228
71 72 221
71 73 103
71 74 52
71 75 147
71 76 216
71 77 243
71 78 181
71 79 131
71 80 85
71 81 198
71 82 207
71 83 133
71 84 176
71 85 108
71 86 165
71 87 139
71 88 55
71 89 21
71 90 28
72 73 83
72 74 125
72 75 33
72 76 43
72 77 216
72 78 6
72 79 96
72 80 105
72 81 86
72 82 114
72 83 9
72 84 238
72 85 201
72 86 190
72 87 243
72 88 227
72 89 123
72 90 252
73 74 263
73 75 218
73 76 19
73 77 262
73 78 252
73 79 58
73 80 99
73 81 102
73 82 78
73 83 233
73 84 258
73 85 141
73 86 33
73 87 158
73 88 51
73 89 163
73 90 226
74 75 67
74 76 90
74 77 210
74 78 257
74 79 82
74 80 27
74 81 88
74 82 206
74 83 211
74 84 264
74 85 49
74 86 12
74 87 94
74 88 84
74 89 127
74 90 195
75 76 157
75 77 256
75 78 77
75 79 31
75 80 25
75 81 146
75 82 231
75 83 91
75 84 175
75 85 34
75 86 165
75 87 96
75 88 88
75 89 173
75 90 104
76 77 215
76 78 105
76 79 74
76 80 229
76 81 185
76 82 165
76 83 53
76 84 112
76 85 175
76 86 165
76 87 3
76 88 263
76 89 225
76 90 118
77 78 161
77 79 86
77 80 210
77 81 95
77 82 38
77 83 248
77 84 226
77 85 266
77 86 163
77 87 214
77 88 95
77 89 7
77 90 20
78 79 21
78 80 73
78 81 40
78 82 264
78 83 135
78 84 107
78 85 82
78 86 268
78 87 258
78 88 168
78 89 220
78 90 127
79 80 91
79 81 243
79 82 0
79 83 30
79 84 62
79 85 243
79 86 122
79 87 24
79 88 146
79 89 131
79 90 215
80 81 19
80 82 116
80 83 228
80 84 211
80 85 55
80 86 79
80 87 24
80 88 22
80 89 31
80 90 27
81 82 87
81 83 126
81 84 245
81 85 88
81 86 107
81 87 77
81 88 234
81 89 87
81 90 66
82 83 30
82 84 51
82 85 266
82 86 120
82 87 18
82 88 176
82 89 194
82 90 209
83 84 16
83 85 224
83 86 86
83 87 34
83 88 199
83 89 185
83 90 255
84 85 211
84 86 55
84 87 48
84 88 248
84 89 68
84 90 20
85 86 132
85 87 182
85 88 92
85 89 240
85 90 77
86 87 71
86 88 64
86 89 223
86 90 235
87 88 210
87 89 189
87 90 227
88 89 216
88 90 87
89 90 14
